Name;Date;IBAN;Amount EUR
Ludwig von Mises;2023-04-01;AT923400051447866442;0,01
Friedrich August von Hayek;2023-04-02;AT381200025313327166;12,12
Joseph Schumpeter;2023-04-03;AT181100069846322362;-50