Creditor Company;Creditor Scheme Id;Creditor IBAN;Creditor BIC;Mandate ID;Mandate signed;Debitor Name;Collection date;Sequence;IBAN;Amount EUR;Text
C99 Business Services GmbH;AT54ZZZ00001000004;AT483400059294971585;GIBAATW0XXX;99991111;2018-01-01;Ludwig von Mises;2023-04-01;RCUR;AT923400051447866442;0,01;Einzug Rechnung 123
C99 Business Services GmbH;AT54ZZZ00001000004;AT483400059294971585;GIBAATW0XXX;99991112;2020-12-10;Friedrich August von Hayek;2023-04-02;RCUR;AT381200025313327166;12,12;Einzug Rechnung 456
C99 Business Services GmbH;AT54ZZZ00001000004;AT483400059294971585;GIBAATW0XXX;99991114;2021-04-04;Joseph Schumpeter;2023-04-03;RCUR;AT181100069846322362;-50;RÃ¼ckabwicklung lt. Vertrag +789